language Essence 1.3

letting codeWordLength be 37
letting dist be
        function((1, 1) --> 0, (1, 2) --> 0, (1, 3) --> 2, (1, 4) --> 5, (1, 5) --> 2, (1, 6) --> 3, (1, 7) --> 1,
                 (1, 8) --> 1, (1, 9) --> 2, (1, 10) --> 4, (1, 11) --> 4, (1, 12) --> 0, (2, 1) --> 0, (2, 2) --> 0,
                 (2, 3) --> 5, (2, 4) --> 5, (2, 5) --> 2, (2, 6) --> 6, (2, 7) --> 3, (2, 8) --> 0, (2, 9) --> 1,
                 (2, 10) --> 5, (2, 11) --> 1, (2, 12) --> 1, (3, 1) --> 2, (3, 2) --> 5, (3, 3) --> 0, (3, 4) --> 1,
                 (3, 5) --> 6, (3, 6) --> 3, (3, 7) --> 3, (3, 8) --> 6, (3, 9) --> 4, (3, 10) --> 1, (3, 11) --> 4,
                 (3, 12) --> 3, (4, 1) --> 5, (4, 2) --> 5, (4, 3) --> 1, (4, 4) --> 0, (4, 5) --> 6, (4, 6) --> 2,
                 (4, 7) --> 5, (4, 8) --> 1, (4, 9) --> 5, (4, 10) --> 5, (4, 11) --> 1, (4, 12) --> 0, (5, 1) --> 2,
                 (5, 2) --> 2, (5, 3) --> 6, (5, 4) --> 6, (5, 5) --> 0, (5, 6) --> 4, (5, 7) --> 6, (5, 8) --> 6,
                 (5, 9) --> 3, (5, 10) --> 3, (5, 11) --> 3, (5, 12) --> 0, (6, 1) --> 3, (6, 2) --> 6, (6, 3) --> 3,
                 (6, 4) --> 2, (6, 5) --> 4, (6, 6) --> 0, (6, 7) --> 6, (6, 8) --> 4, (6, 9) --> 3, (6, 10) --> 2,
                 (6, 11) --> 5, (6, 12) --> 1, (7, 1) --> 1, (7, 2) --> 3, (7, 3) --> 3, (7, 4) --> 5, (7, 5) --> 6,
                 (7, 6) --> 6, (7, 7) --> 0, (7, 8) --> 2, (7, 9) --> 0, (7, 10) --> 4, (7, 11) --> 0, (7, 12) --> 6,
                 (8, 1) --> 1, (8, 2) --> 0, (8, 3) --> 6, (8, 4) --> 1, (8, 5) --> 6, (8, 6) --> 4, (8, 7) --> 2,
                 (8, 8) --> 0, (8, 9) --> 4, (8, 10) --> 1, (8, 11) --> 3, (8, 12) --> 2, (9, 1) --> 2, (9, 2) --> 1,
                 (9, 3) --> 4, (9, 4) --> 5, (9, 5) --> 3, (9, 6) --> 3, (9, 7) --> 0, (9, 8) --> 4, (9, 9) --> 0,
                 (9, 10) --> 2, (9, 11) --> 4, (9, 12) --> 0, (10, 1) --> 4, (10, 2) --> 5, (10, 3) --> 1,
                 (10, 4) --> 5, (10, 5) --> 3, (10, 6) --> 2, (10, 7) --> 4, (10, 8) --> 1, (10, 9) --> 2,
                 (10, 10) --> 0, (10, 11) --> 2, (10, 12) --> 5, (11, 1) --> 4, (11, 2) --> 1, (11, 3) --> 4,
                 (11, 4) --> 1, (11, 5) --> 3, (11, 6) --> 5, (11, 7) --> 0, (11, 8) --> 3, (11, 9) --> 4,
                 (11, 10) --> 2, (11, 11) --> 0, (11, 12) --> 2, (12, 1) --> 0, (12, 2) --> 1, (12, 3) --> 3,
                 (12, 4) --> 0, (12, 5) --> 0, (12, 6) --> 1, (12, 7) --> 6, (12, 8) --> 2, (12, 9) --> 0,
                 (12, 10) --> 5, (12, 11) --> 2, (12, 12) --> 0)
letting maxDist be 14
letting minDist be 50
letting nbCharacter be 12
letting numOfCodeWords be 6
